k = 104;
b = 52;
AtomicConstraints =  [|
1, 5|
	1, 6|
	1, 7|
	1, 8|
	1, 9|
	1, 10|
	1, 11|
	1, 12|
	1, 13|
	1, 14|
	1, 15|
	1, 16|
	1, 17|
	1, 18|
	1, 19|
	1, 20|
	1, 26|
	1, 27|
	1, 28|
	1, 29|
	1, 30|
	1, 31|
	1, 32|
	1, 33|
	1, 34|
	1, 35|
	1, 36|
	1, 37|
	1, 38|
	1, 39|
	1, 40|
	1, 41|
	1, 42|
	2, 5|
	2, 6|
	2, 7|
	2, 8|
	2, 9|
	2, 10|
	2, 11|
	2, 12|
	2, 13|
	2, 14|
	2, 15|
	2, 16|
	2, 17|
	2, 18|
	2, 19|
	2, 20|
	2, 26|
	2, 27|
	2, 28|
	2, 29|
	2, 30|
	2, 31|
	2, 32|
	2, 33|
	2, 34|
	2, 35|
	2, 36|
	2, 37|
	2, 38|
	2, 39|
	2, 40|
	2, 41|
	2, 42|
	3, 5|
	3, 6|
	3, 7|
	3, 8|
	3, 9|
	3, 10|
	3, 11|
	3, 12|
	3, 13|
	3, 14|
	3, 15|
	3, 16|
	3, 17|
	3, 18|
	3, 19|
	3, 20|
	3, 26|
	3, 27|
	3, 28|
	3, 29|
	3, 30|
	3, 31|
	3, 32|
	3, 33|
	3, 34|
	3, 35|
	3, 36|
	3, 37|
	3, 38|
	3, 39|
	3, 40|
	3, 41|
	3, 42|
	4, 5|
	4, 6|
	4, 7|
	4, 8|
	4, 9|
	4, 10|
	4, 11|
	4, 12|
	4, 13|
	4, 14|
	4, 15|
	4, 16|
	4, 17|
	4, 18|
	4, 19|
	4, 20|
	4, 26|
	4, 27|
	4, 28|
	4, 29|
	4, 30|
	4, 31|
	4, 32|
	4, 33|
	4, 34|
	4, 35|
	4, 36|
	4, 37|
	4, 38|
	4, 39|
	4, 40|
	4, 41|
	4, 42|
	5, 10|
	5, 11|
	12, 20|
	18, 20|
	19, 13|
	19, 14|
	19, 15|
	56, 12|
	56, 13|
	56, 14|
	56, 15|
	56, 16|
	56, 17|
	56, 18|
	56, 19|
	56, 20|
	56, 21|
	56, 25|
	22, 12|
	22, 13|
	22, 14|
	22, 15|
	22, 16|
	22, 17|
	22, 18|
	22, 19|
	22, 20|
	22, 25|
	21, 12|
	21, 13|
	21, 14|
	21, 15|
	21, 16|
	21, 17|
	21, 18|
	21, 19|
	21, 20|
	23, 12|
	23, 13|
	23, 14|
	23, 15|
	23, 16|
	23, 17|
	23, 18|
	23, 19|
	23, 20|
	23, 25|
	23, 55|
	54, 12|
	54, 13|
	54, 14|
	54, 15|
	54, 16|
	54, 17|
	54, 18|
	54, 19|
	54, 20|
	54, 55|
	54, 53|
	24, 12|
	24, 13|
	24, 14|
	24, 15|
	24, 16|
	24, 17|
	24, 18|
	24, 19|
	24, 20|
	24, 53|
	25, 12|
	25, 13|
	25, 14|
	25, 15|
	25, 16|
	25, 17|
	25, 18|
	25, 19|
	25, 20|
	55, 12|
	55, 13|
	55, 14|
	55, 15|
	55, 16|
	55, 17|
	55, 18|
	55, 19|
	55, 20|
	53, 12|
	53, 13|
	53, 14|
	53, 15|
	53, 16|
	53, 17|
	53, 18|
	53, 19|
	53, 20|
	27, 5|
	27, 6|
	27, 7|
	27, 8|
	27, 9|
	27, 10|
	27, 11|
	27, 26|
	27, 35|
	27, 36|
	27, 37|
	28, 5|
	28, 6|
	28, 7|
	28, 8|
	28, 9|
	28, 10|
	28, 11|
	28, 35|
	28, 36|
	28, 37|
	28, 38|
	26, 5|
	26, 7|
	26, 8|
	26, 9|
	26, 10|
	26, 11|
	29, 5|
	29, 6|
	29, 7|
	29, 8|
	29, 9|
	29, 10|
	29, 11|
	29, 36|
	29, 37|
	29, 38|
	29, 39|
	30, 5|
	30, 6|
	30, 7|
	30, 8|
	30, 9|
	30, 10|
	30, 11|
	30, 37|
	30, 38|
	30, 39|
	30, 40|
	31, 5|
	31, 6|
	31, 7|
	31, 8|
	31, 9|
	31, 10|
	31, 11|
	31, 38|
	31, 39|
	31, 40|
	32, 5|
	32, 6|
	32, 7|
	32, 8|
	32, 9|
	32, 10|
	32, 11|
	32, 39|
	32, 40|
	33, 5|
	33, 6|
	33, 7|
	33, 8|
	33, 9|
	33, 10|
	33, 11|
	33, 40|
	34, 5|
	34, 6|
	34, 7|
	34, 8|
	34, 9|
	34, 10|
	34, 11|
	35, 5|
	35, 7|
	35, 8|
	35, 9|
	35, 10|
	35, 11|
	36, 5|
	36, 6|
	36, 7|
	36, 8|
	36, 9|
	36, 10|
	36, 11|
	37, 5|
	37, 6|
	37, 7|
	37, 8|
	37, 9|
	37, 10|
	37, 11|
	38, 5|
	38, 6|
	38, 7|
	38, 8|
	38, 9|
	38, 10|
	38, 11|
	39, 5|
	39, 6|
	39, 7|
	39, 8|
	39, 9|
	39, 10|
	39, 11|
	40, 5|
	40, 6|
	40, 7|
	40, 8|
	40, 9|
	40, 10|
	40, 11|
	41, 5|
	41, 7|
	41, 8|
	41, 9|
	41, 10|
	41, 11|
	41, 20|
	41, 26|
	41, 35|
	42, 5|
	42, 7|
	42, 8|
	42, 9|
	42, 10|
	42, 11|
	42, 26|
	42, 35|
	42, 36|
	43, 5|
	43, 6|
	43, 7|
	43, 8|
	43, 9|
	43, 10|
	43, 11|
	43, 12|
	43, 13|
	43, 14|
	43, 15|
	43, 16|
	43, 17|
	43, 18|
	43, 19|
	43, 20|
	43, 21|
	43, 56|
	43, 22|
	43, 23|
	43, 54|
	43, 24|
	43, 25|
	43, 55|
	43, 53|
	43, 26|
	43, 27|
	43, 28|
	43, 29|
	43, 35|
	43, 36|
	43, 37|
	43, 38|
	43, 41|
	43, 42|
	44, 5|
	44, 6|
	44, 7|
	44, 8|
	44, 9|
	44, 10|
	44, 11|
	44, 12|
	44, 13|
	44, 14|
	44, 15|
	44, 16|
	44, 17|
	44, 18|
	44, 19|
	44, 20|
	44, 21|
	44, 56|
	44, 22|
	44, 23|
	44, 54|
	44, 24|
	44, 25|
	44, 55|
	44, 53|
	44, 26|
	44, 27|
	44, 28|
	44, 29|
	44, 30|
	44, 31|
	44, 32|
	44, 35|
	44, 36|
	44, 37|
	44, 38|
	44, 39|
	44, 40|
	44, 41|
	44, 42|
	45, 7|
	45, 8|
	45, 9|
	45, 12|
	45, 13|
	45, 14|
	45, 15|
	45, 16|
	45, 17|
	45, 18|
	45, 19|
	45, 20|
	45, 21|
	45, 56|
	45, 22|
	45, 23|
	45, 54|
	45, 24|
	45, 25|
	45, 55|
	45, 53|
	45, 46|
	45, 50|
	45, 51|
	46, 7|
	46, 12|
	46, 13|
	46, 14|
	46, 15|
	46, 16|
	46, 17|
	46, 18|
	46, 19|
	46, 20|
	46, 21|
	46, 56|
	46, 22|
	46, 23|
	46, 54|
	46, 24|
	46, 25|
	46, 55|
	46, 53|
	47, 5|
	47, 6|
	47, 7|
	47, 8|
	47, 9|
	47, 10|
	47, 11|
	47, 12|
	47, 13|
	47, 14|
	47, 15|
	47, 16|
	47, 17|
	47, 18|
	47, 19|
	47, 20|
	47, 21|
	47, 56|
	47, 22|
	47, 23|
	47, 54|
	47, 24|
	47, 25|
	47, 55|
	47, 53|
	47, 26|
	47, 27|
	47, 28|
	47, 29|
	47, 30|
	47, 31|
	47, 32|
	47, 33|
	47, 34|
	47, 35|
	47, 36|
	47, 37|
	47, 38|
	47, 39|
	47, 40|
	47, 41|
	47, 42|
	48, 12|
	48, 13|
	48, 14|
	48, 15|
	48, 16|
	48, 17|
	48, 18|
	48, 19|
	48, 20|
	48, 21|
	48, 56|
	48, 22|
	48, 23|
	48, 54|
	48, 24|
	48, 25|
	48, 55|
	48, 53|
	49, 12|
	49, 13|
	49, 14|
	49, 15|
	49, 16|
	49, 17|
	49, 18|
	49, 19|
	49, 20|
	49, 21|
	49, 56|
	49, 22|
	49, 23|
	49, 54|
	49, 24|
	49, 25|
	49, 55|
	49, 53|
	50, 7|
	50, 8|
	50, 9|
	50, 12|
	50, 13|
	50, 14|
	50, 15|
	50, 16|
	50, 17|
	50, 18|
	50, 19|
	50, 20|
	50, 21|
	50, 56|
	50, 22|
	50, 23|
	50, 54|
	50, 24|
	50, 25|
	50, 55|
	50, 53|
	51, 7|
	51, 8|
	51, 9|
	51, 10|
	51, 12|
	51, 13|
	51, 14|
	51, 15|
	51, 16|
	51, 17|
	51, 18|
	51, 19|
	51, 20|
	51, 21|
	51, 56|
	51, 22|
	51, 23|
	51, 54|
	51, 24|
	51, 25|
	51, 55|
	51, 53|
	52, 7|
	52, 8|
	52, 9|
	52, 10|
	52, 11|
	52, 12|
	52, 13|
	52, 14|
	52, 15|
	52, 16|
	52, 17|
	52, 18|
	52, 19|
	52, 20|
	52, 21|
	52, 56|
	52, 22|
	52, 23|
	52, 54|
	52, 24|
	52, 25|
	52, 55|
	52, 53|
	52, 26|
	52, 41|
	72, 63|
	72, 59|
	72, 70|
	72, 60|
	72, 61|
	72, 62|
	63, 59|
	63, 60|
	63, 62|
	99, 72|
	99, 63|
	99, 59|
	99, 73|
	99, 91|
	99, 83|
	99, 70|
	99, 60|
	99, 77|
	99, 86|
	99, 78|
	99, 68|
	99, 58|
	99, 93|
	99, 64|
	99, 61|
	99, 62|
	99, 76|
	99, 90|
	73, 72|
	73, 63|
	73, 59|
	73, 91|
	73, 83|
	73, 70|
	73, 60|
	73, 86|
	73, 78|
	73, 68|
	73, 58|
	73, 64|
	73, 61|
	73, 62|
	73, 90|
	75, 72|
	75, 63|
	75, 59|
	75, 80|
	75, 93|
	75, 64|
	75, 61|
	75, 62|
	75, 76|
	75, 90|
	91, 72|
	91, 63|
	91, 59|
	91, 83|
	91, 70|
	91, 60|
	91, 78|
	91, 68|
	91, 58|
	91, 61|
	91, 62|
	83, 63|
	83, 59|
	83, 70|
	83, 60|
	83, 68|
	83, 58|
	83, 62|
	70, 59|
	70, 60|
	70, 58|
	98, 72|
	98, 63|
	98, 59|
	98, 73|
	98, 91|
	98, 83|
	98, 70|
	98, 60|
	98, 77|
	98, 86|
	98, 78|
	98, 68|
	98, 58|
	98, 64|
	98, 61|
	98, 62|
	98, 90|
	77, 72|
	77, 63|
	77, 59|
	77, 91|
	77, 83|
	77, 70|
	77, 60|
	77, 86|
	77, 78|
	77, 68|
	77, 58|
	77, 61|
	77, 62|
	86, 63|
	86, 59|
	86, 83|
	86, 70|
	86, 60|
	86, 78|
	86, 68|
	86, 58|
	86, 62|
	78, 59|
	78, 70|
	78, 60|
	78, 68|
	78, 58|
	68, 60|
	68, 58|
	80, 72|
	80, 63|
	80, 59|
	80, 93|
	80, 64|
	80, 61|
	80, 62|
	80, 90|
	96, 72|
	96, 63|
	96, 59|
	96, 91|
	96, 83|
	96, 70|
	96, 60|
	96, 86|
	96, 78|
	96, 68|
	96, 58|
	96, 97|
	96, 81|
	96, 82|
	96, 71|
	96, 57|
	96, 104|
	96, 92|
	96, 94|
	96, 65|
	96, 67|
	96, 61|
	96, 62|
	97, 63|
	97, 59|
	97, 83|
	97, 70|
	97, 60|
	97, 78|
	97, 68|
	97, 58|
	97, 81|
	97, 82|
	97, 71|
	97, 57|
	97, 92|
	97, 94|
	97, 65|
	97, 67|
	97, 62|
	81, 59|
	81, 70|
	81, 60|
	81, 68|
	81, 58|
	81, 82|
	81, 71|
	81, 57|
	81, 94|
	81, 65|
	81, 67|
	82, 60|
	82, 58|
	82, 71|
	82, 57|
	82, 65|
	82, 67|
	71, 57|
	71, 67|
	101, 63|
	101, 59|
	101, 83|
	101, 70|
	101, 60|
	101, 86|
	101, 78|
	101, 68|
	101, 58|
	101, 97|
	101, 81|
	101, 82|
	101, 71|
	101, 57|
	101, 104|
	101, 92|
	101, 94|
	101, 65|
	101, 67|
	101, 102|
	101, 87|
	101, 84|
	101, 89|
	101, 69|
	101, 61|
	101, 62|
	104, 59|
	104, 70|
	104, 60|
	104, 78|
	104, 68|
	104, 58|
	104, 81|
	104, 82|
	104, 71|
	104, 57|
	104, 92|
	104, 94|
	104, 65|
	104, 67|
	104, 87|
	104, 84|
	104, 89|
	104, 69|
	104, 62|
	92, 60|
	92, 68|
	92, 58|
	92, 82|
	92, 71|
	92, 57|
	92, 94|
	92, 65|
	92, 67|
	92, 84|
	92, 89|
	92, 69|
	94, 58|
	94, 71|
	94, 57|
	94, 65|
	94, 67|
	94, 89|
	94, 69|
	93, 72|
	93, 63|
	93, 59|
	93, 64|
	93, 61|
	93, 62|
	65, 57|
	65, 67|
	65, 69|
	103, 59|
	103, 70|
	103, 60|
	103, 78|
	103, 68|
	103, 58|
	103, 81|
	103, 82|
	103, 71|
	103, 57|
	103, 104|
	103, 92|
	103, 94|
	103, 65|
	103, 67|
	103, 102|
	103, 87|
	103, 84|
	103, 89|
	103, 69|
	103, 95|
	103, 79|
	103, 85|
	103, 88|
	103, 66|
	103, 62|
	102, 60|
	102, 68|
	102, 58|
	102, 82|
	102, 71|
	102, 57|
	102, 92|
	102, 94|
	102, 65|
	102, 67|
	102, 87|
	102, 84|
	102, 89|
	102, 69|
	102, 79|
	102, 85|
	102, 88|
	102, 66|
	87, 58|
	87, 71|
	87, 57|
	87, 94|
	87, 65|
	87, 67|
	87, 84|
	87, 89|
	87, 69|
	87, 85|
	87, 88|
	87, 66|
	84, 57|
	84, 65|
	84, 67|
	84, 89|
	84, 69|
	84, 88|
	84, 66|
	89, 67|
	89, 69|
	89, 66|
	100, 59|
	100, 70|
	100, 60|
	100, 68|
	100, 58|
	100, 82|
	100, 71|
	100, 57|
	100, 92|
	100, 94|
	100, 65|
	100, 67|
	100, 102|
	100, 87|
	100, 84|
	100, 89|
	100, 69|
	100, 95|
	100, 79|
	100, 85|
	100, 88|
	100, 66|
	95, 60|
	95, 58|
	95, 71|
	95, 57|
	95, 94|
	95, 65|
	95, 67|
	95, 87|
	95, 84|
	95, 89|
	95, 69|
	95, 79|
	95, 85|
	95, 88|
	95, 66|
	64, 63|
	64, 59|
	64, 61|
	64, 62|
	79, 57|
	79, 65|
	79, 67|
	79, 84|
	79, 89|
	79, 69|
	79, 85|
	79, 88|
	79, 66|
	85, 67|
	85, 89|
	85, 69|
	85, 88|
	85, 66|
	88, 69|
	88, 66|
	61, 59|
	61, 62|
	74, 72|
	74, 63|
	74, 59|
	74, 73|
	74, 91|
	74, 83|
	74, 70|
	74, 60|
	74, 80|
	74, 93|
	74, 64|
	74, 61|
	74, 62|
	74, 76|
	74, 90|
	76, 72|
	76, 63|
	76, 59|
	76, 91|
	76, 83|
	76, 70|
	76, 60|
	76, 93|
	76, 64|
	76, 61|
	76, 62|
	76, 90|
	90, 72|
	90, 63|
	90, 59|
	90, 83|
	90, 70|
	90, 60|
	90, 64|
	90, 61|
	90, 62|];
DisjunctiveConstraints =  [|2, 3, 2, 1|
	3, 4, 3, 2|
	8, 9, 8, 7|
	9, 10, 9, 8|
	10, 11, 10, 9|
	14, 13, 14, 15|
	15, 14, 15, 16|
	16, 15, 16, 17|
	22, 23, 22, 56|
	27, 6, 58, 27|
	27, 28, 27, 42|
	28, 29, 28, 27|
	28, 58, 28, 6|
	26, 5, 57, 26|
	29, 30, 29, 28|
	30, 31, 30, 29|
	31, 32, 31, 30|
	32, 33, 32, 31|
	26, 63, 26, 11|
	33, 34, 33, 32|
	35, 36, 35, 26|
	35, 57, 35, 5|
	36, 6, 58, 36|
	36, 37, 36, 35|
	37, 38, 37, 36|
	37, 58, 37, 6|
	38, 39, 38, 37|
	39, 40, 39, 38|
	41, 5, 57, 41|
	41, 63, 41, 11|
	42, 27, 42, 41|
	42, 57, 42, 5|
	43, 30, 82, 43|
	43, 39, 91, 43|
	43, 80, 43, 28|
	43, 58, 43, 6|
	43, 89, 43, 37|
	44, 33, 85, 44|
	44, 40, 44, 92|
	44, 83, 44, 31|
	45, 60, 45, 8|
	46, 9, 61, 46|
	47, 1, 53, 47|
	47, 86, 47, 34|
	48, 2, 48, 54|
	48, 24, 76, 48|
	50, 11, 63, 50|
	50, 51, 50, 46|
	50, 60, 50, 8|
	51, 5, 57, 51|
	51, 26, 78, 51|
	51, 41, 93, 51|
	51, 52, 51, 50|
	51, 61, 51, 9|
	52, 35, 87, 52|
	52, 42, 94, 52|
	52, 62, 52, 10|
	72, 83, 72, 64|
	63, 70, 63, 61|
	59, 60, 59, 62|
	99, 98, 99, 74|
	73, 77, 73, 76|
	91, 86, 91, 90|
	83, 78, 83, 72|
	70, 68, 70, 63|
	60, 58, 60, 59|
	98, 96, 98, 99|
	77, 97, 77, 73|
	86, 81, 86, 91|
	78, 82, 78, 83|
	68, 71, 68, 70|
	58, 57, 58, 60|
	96, 101, 96, 98|
	97, 104, 97, 77|
	81, 92, 81, 86|
	82, 94, 82, 78|
	71, 65, 71, 68|
	57, 67, 57, 58|
	101, 103, 101, 96|
	104, 102, 104, 97|
	92, 87, 92, 81|
	94, 84, 94, 82|
	65, 89, 65, 71|
	67, 69, 67, 57|
	103, 100, 103, 101|
	102, 95, 102, 104|
	87, 79, 87, 92|
	84, 85, 84, 94|
	89, 88, 89, 65|
	69, 66, 69, 67|
	100, 17, 69, 100|
	95, 17, 69, 95|
	79, 17, 69, 79|
	85, 17, 69, 85|
	88, 17, 69, 88|
	66, 17, 69, 66|
	74, 99, 74, 75|
	76, 73, 76, 80|
	90, 91, 90, 93|];
SoftAtomicConstraints =  [|
2, 1|
3, 2|
4, 3|
6, 5|
8, 7|
9, 8|
10, 9|
11, 10|
20, 13|
13, 14|
14, 15|
15, 16|
16, 17|
12, 18|
18, 19|
25, 21|
23, 22|
54, 23|
55, 25|
35, 26|
28, 27|
29, 28|
30, 29|
31, 30|
32, 31|
33, 32|
34, 33|
36, 35|
37, 36|
38, 37|
39, 38|
40, 39|
42, 41|
27, 42|
44, 43|
47, 45|
50, 46|
49, 48|
51, 50|
52, 51|
43, 52|
24, 54|
53, 55|
22, 56|
67, 57|
57, 58|
60, 59|
58, 60|
63, 61|
59, 62|
70, 63|
72, 64|
89, 65|
69, 67|
71, 68|
66, 69|
68, 70|
65, 71|
83, 72|
77, 73|
99, 74|
74, 75|
73, 76|
97, 77|
82, 78|
76, 80|
92, 81|
94, 82|
78, 83|
85, 84|
81, 86|
79, 87|
88, 89|
91, 90|
86, 91|
87, 92|
90, 93|
84, 94|
101, 96|
104, 97|
96, 98|
98, 99|
103, 101|
95, 102|
100, 103|
102, 104|];
DirectSuccessors =  [];
